NAME : Instance 17
COMMENT : Comment 17
TYPE : TSP
DIMENSION: 30
EDGE_WEIGHT_TYPE : EUC_2D
NODE_COORD_SECTION
  1 1440 513
  2 1891 778
  3 273 193
  4 1832 582
  5 171 819
  6 365 1675
  7 1024 399
  8 767 1134
  9 1125 1501
  10 1560 802
  11 23 1466
  12 694 715
  13 1956 190
  14 721 612
  15 1784 1300
  16 173 1111
  17 387 1379
  18 178 1625
  19 1724 701
  20 1777 1530
  21 1344 1283
  22 932 1886
  23 428 149
  24 915 1208
  25 1704 7
  26 1680 1940
  27 522 1088
  28 857 536
  29 1966 925
  30 966 880
EOF
